
Gurobi 11.0.3 (mac64[x86]) logging started Tue Apr 15 13:16:52 2025

Set parameter LogFile to value "Results/SanityCheck/try_2_big.log"
Set parameter TimeLimit to value 84600
Set parameter Method to value 2
Set parameter Crossover to value 0
Set parameter BarHomogeneous to value 1
Set parameter BarConvTol to value 1e-10
Gurobi Optimizer version 11.0.3 build v11.0.3rc0 (mac64[x86] - Darwin 23.4.0 23E214)

CPU model: Intel(R) Core(TM) i7-1060NG7 CPU @ 1.20GHz
Thread count: 4 physical cores, 8 logical processors, using up to 8 threads

Optimize a model with 1496320 rows, 1917920 columns and 7073808 nonzeros
Model fingerprint: 0xc459aa68
Coefficient statistics:
  Matrix range     [2e-01, 1e+00]
  Objective range  [6e-05, 5e+00]
  Bounds range     [0e+00, 0e+00]
  RHS range        [1e-02, 3e+03]
Presolve removed 1209808 rows and 1390400 columns (presolve time = 5s) ...
Presolve removed 1211600 rows and 1390512 columns
Presolve time: 5.88s
Presolved: 284720 rows, 527504 columns, 1879712 nonzeros
Ordering time: 1.51s

Barrier statistics:
 AA' NZ     : 2.697e+05
 Factor NZ  : 5.516e+06 (roughly 80 MB of memory)
 Factor Ops : 3.554e+09 (less than 1 second per iteration)
 Threads    : 4

                  Objective                Residual
Iter       Primal          Dual         Primal    Dual     Compl     Time
   0   1.03593626e+07  1.73153282e+11  1.54e+04 6.23e+03  4.19e+07    10s
   1  -1.42083959e+07  8.59927907e+10  5.15e+03 6.49e+03  1.33e+07    10s
   2  -1.63618936e+07  7.77480875e+09  1.11e+03 6.14e+02  1.65e+06    10s
   3  -1.56844760e+07  2.16601172e+09  7.01e+01 2.75e+01  1.10e+05    11s
   4  -9.43863823e+06  6.20357845e+08  9.62e+00 7.87e+00  2.00e+04    11s
   5  -5.95642436e+06  8.43992537e+07  7.15e-01 9.20e-01  1.97e+03    11s
   6  -2.46515050e+06  2.80684511e+06  4.96e-02 4.76e-02  9.37e+01    12s
   7  -1.04299512e+05  3.36543118e+05  3.51e-03 5.52e-03  7.78e+00    13s
   8   2.41087339e+04  7.17237850e+04  2.98e-04 3.94e-04  8.23e-01    14s
   9   3.43310942e+04  4.49779686e+04  6.25e-05 8.24e-05  1.72e-01    14s
  10   3.76085456e+04  4.06694706e+04  1.33e-05 4.36e-05  4.55e-02    15s
  11   3.85927920e+04  3.95688977e+04  3.82e-06 1.90e-13  1.29e-02    15s
  12   3.89628304e+04  3.92821434e+04  1.31e-06 1.43e-13  3.94e-03    15s
  13   3.91156443e+04  3.92198130e+04  3.50e-07 3.69e-12  1.25e-03    16s
  14   3.91586115e+04  3.91923864e+04  1.14e-07 3.55e-07  4.01e-04    16s
  15   3.91751801e+04  3.91864838e+04  2.69e-08 1.26e-07  1.34e-04    16s
  16   3.91786890e+04  3.91834985e+04  9.21e-09 1.31e-11  5.70e-05    16s
  17   3.91797286e+04  3.91819857e+04  1.43e-08 3.87e-10  2.68e-05    16s
  18   3.91800465e+04  3.91812877e+04  1.89e-08 3.43e-10  1.47e-05    17s
  19   3.91804193e+04  3.91808779e+04  7.13e-09 1.49e-09  5.43e-06    17s
  20   3.91806007e+04  3.91807096e+04  1.66e-09 1.68e-09  1.29e-06    17s
  21   3.91806425e+04  3.91806655e+04  4.52e-10 8.17e-09  2.73e-07    18s
  22   3.91806572e+04  3.91806588e+04  3.59e-10 4.10e-08  1.92e-08    18s
  23   3.91806572e+04  3.91806585e+04  3.17e-09 1.91e-09  1.56e-08    18s
  24   3.91806574e+04  3.91806585e+04  2.56e-09 2.23e-10  1.33e-08    19s
  25   3.91806585e+04  3.91806585e+04  5.15e-09 3.21e-11  2.63e-11    19s

Barrier solved model in 25 iterations and 19.13 seconds (7.90 work units)
Optimal objective 3.91806585e+04


Gurobi 11.0.3 (mac64[x86]) logging started Tue Apr 15 13:21:26 2025

Set parameter LogFile to value "Results/SanityCheck/try_2_big.log"
Set parameter TimeLimit to value 84600
Set parameter Method to value 2
Set parameter Crossover to value 0
Set parameter BarHomogeneous to value 1
Set parameter BarConvTol to value 1e-10
Gurobi Optimizer version 11.0.3 build v11.0.3rc0 (mac64[x86] - Darwin 23.4.0 23E214)

CPU model: Intel(R) Core(TM) i7-1060NG7 CPU @ 1.20GHz
Thread count: 4 physical cores, 8 logical processors, using up to 8 threads

Optimize a model with 1496320 rows, 1917920 columns and 7073808 nonzeros
Model fingerprint: 0x829cce1f
Coefficient statistics:
  Matrix range     [2e-01, 1e+00]
  Objective range  [6e-05, 5e+00]
  Bounds range     [0e+00, 0e+00]
  RHS range        [1e-02, 3e+03]
Presolve removed 1210000 rows and 1390784 columns (presolve time = 5s) ...
Presolve removed 1211792 rows and 1390896 columns
Presolve time: 5.58s
Presolved: 284528 rows, 527120 columns, 1878608 nonzeros
Ordering time: 0.62s

Barrier statistics:
 AA' NZ     : 2.680e+05
 Factor NZ  : 5.389e+06 (roughly 80 MB of memory)
 Factor Ops : 3.490e+09 (less than 1 second per iteration)
 Threads    : 4

                  Objective                Residual
Iter       Primal          Dual         Primal    Dual     Compl     Time
   0   9.60608232e+06  1.73151253e+11  1.48e+04 6.23e+03  4.07e+07     7s
   1  -1.45091924e+07  8.75699733e+10  4.16e+03 6.87e+03  1.33e+07     7s
   2  -1.62700033e+07  7.66798915e+09  9.87e+02 6.72e+02  1.74e+06     7s
   3  -1.54917948e+07  2.00513801e+09  6.25e+01 2.70e+01  1.08e+05     8s
   4  -6.56708792e+06  2.88240822e+08  4.07e+00 3.73e+00  7.56e+03     8s
   5  -3.70026058e+06  2.07610862e+07  2.75e-01 2.65e-01  4.64e+02     8s
   6  -4.82349358e+05  5.97821999e+05  2.07e-02 1.15e-02  1.60e+01     8s
   7  -7.25467699e+03  8.77817179e+04  1.87e-03 3.31e-04  1.36e+00     8s
   8   2.73074118e+04  5.15137598e+04  4.48e-04 6.88e-05  3.48e-01     9s
   9   3.58881501e+04  4.18763261e+04  7.44e-05 7.95e-13  8.45e-02     9s
  10   3.71013297e+04  3.99214507e+04  3.03e-05 4.02e-13  3.81e-02     9s
  11   3.77127154e+04  3.90378402e+04  1.28e-05 2.01e-13  1.71e-02     9s
  12   3.80750992e+04  3.86195300e+04  4.37e-06 3.73e-13  6.75e-03     9s
  13   3.82466906e+04  3.84413884e+04  1.03e-06 1.46e-12  2.35e-03    10s
  14   3.83017798e+04  3.83461570e+04  2.14e-07 1.26e-11  5.28e-04    10s
  15   3.83163969e+04  3.83226988e+04  3.37e-08 3.33e-11  7.47e-05    10s
  16   3.83186036e+04  3.83199247e+04  1.37e-07 9.79e-11  1.56e-05    10s
  17   3.83190843e+04  3.83195001e+04  3.48e-08 1.19e-10  4.92e-06    10s
  18   3.83192069e+04  3.83193694e+04  9.99e-09 4.56e-10  1.93e-06    11s
  19   3.83192423e+04  3.83192927e+04  3.39e-09 1.21e-08  5.97e-07    11s
  20   3.83192579e+04  3.83192668e+04  7.67e-10 3.42e-09  1.05e-07    11s
  21   3.83192616e+04  3.83192642e+04  1.97e-10 3.82e-08  3.16e-08    11s
  22   3.83192616e+04  3.83192640e+04  7.16e-09 3.13e-08  2.88e-08    12s
  23   3.83192616e+04  3.83192635e+04  7.12e-09 3.74e-08  2.28e-08    12s
  24   3.83192624e+04  3.83192631e+04  4.41e-07 2.98e-08  8.41e-09    12s
  25   3.83192625e+04  3.83192629e+04  3.79e-07 3.26e-09  4.54e-09    12s
  26   3.83192626e+04  3.83192628e+04  2.64e-07 2.96e-11  2.91e-09    13s
  27   3.83192628e+04  3.83192628e+04  3.08e-10 4.88e-12  1.67e-13    13s

Barrier solved model in 27 iterations and 12.82 seconds (8.36 work units)
Optimal objective 3.83192628e+04

